55
2 0 1
4 3 1
5 0 1
6 0 4
6 4 1
7 1 1
7 2 2
8 2 4
8 4 2
9 2 3
9 4 2
9 5 2
9 8 2
10 0 4
10 1 5
10 2 4
10 8 3
10 9 4
11 1 1
11 5 4
11 6 3
12 0 2
12 1 2
12 3 1
12 4 5
12 5 3
12 7 4
12 8 4
13 0 1
13 3 1
13 5 3
13 6 4
13 7 1
13 8 3
13 10 5
13 11 5
13 12 5
14 0 3
14 2 2
14 3 5
14 5 2
14 6 4
14 7 4
14 8 5
14 9 5
14 12 3
15 3 1
15 4 3
15 5 1
15 13 3
15 14 1
16 0 5
16 2 1
16 3 2
16 5 5
16 6 3
16 8 4
16 11 4
16 13 5
16 14 4
16 15 2
17 1 1
17 2 5
17 3 1
17 5 5
17 6 5
17 8 3
17 10 4
17 12 1
17 13 5
17 14 4
18 1 2
18 2 2
18 8 3
18 12 1
18 14 2
18 16 4
19 0 5
19 2 5
19 5 2
19 6 5
19 7 1
19 8 5
19 9 1
19 10 4
19 11 4
19 12 3
19 13 3
19 14 3
19 16 4
19 17 1
19 18 3
20 0 1
20 3 4
20 7 5
20 8 4
20 10 4
20 13 2
20 16 1
20 18 2
20 19 2
21 1 1
21 5 3
21 8 2
21 10 5
21 11 5
21 12 1
21 13 4
21 14 5
21 15 1
21 16 5
21 17 2
21 20 5
22 0 2
22 1 1
22 4 3
22 5 3
22 7 4
22 9 4
22 10 4
22 11 2
22 12 3
22 18 2
22 21 3
23 0 1
23 3 2
23 7 4
23 8 4
23 12 5
23 13 1
23 15 1
23 16 4
23 19 3
23 20 4
23 21 1
24 3 2
24 4 2
24 7 5
24 9 4
24 10 5
24 11 5
24 13 5
24 16 4
24 17 5
24 20 4
24 21 3
25 4 3
25 7 2
25 8 2
25 11 4
25 12 2
25 13 4
25 17 3
26 1 3
26 2 1
26 3 1
26 5 4
26 8 2
26 13 5
26 14 1
26 15 4
26 17 4
26 18 4
26 23 1
26 24 2
27 0 4
27 1 1
27 4 2
27 6 5
27 7 5
27 8 5
27 11 3
27 13 2
27 15 2
27 16 3
27 20 1
27 21 1
27 22 5
27 24 5
27 25 5
27 26 4
28 0 5
28 4 3
28 5 3
28 8 4
28 9 1
28 10 2
28 11 5
28 12 4
28 13 2
28 14 2
28 15 3
28 16 2
28 17 3
28 18 1
28 19 2
28 20 5
28 21 4
28 23 5
28 27 2
29 0 3
29 1 4
29 2 2
29 6 3
29 8 5
29 10 3
29 12 2
29 13 1
29 14 2
29 17 3
29 19 2
29 20 2
29 22 5
30 1 4
30 2 5
30 4 1
30 6 4
30 8 4
30 9 5
30 11 5
30 15 5
30 16 2
30 18 4
30 20 5
30 21 1
30 25 4
30 26 5
30 28 3
31 0 2
31 1 4
31 3 4
31 5 3
31 6 2
31 8 1
31 9 3
31 13 5
31 17 2
31 18 5
31 20 3
31 21 5
31 22 1
31 25 1
31 27 4
31 28 2
32 0 1
32 1 2
32 2 3
32 3 4
32 7 4
32 9 2
32 14 4
32 15 5
32 17 3
32 19 1
32 20 5
32 21 1
32 24 5
32 25 1
32 27 3
32 29 4
33 8 1
33 12 3
33 13 4
33 15 2
33 16 2
33 17 4
33 19 2
33 21 5
33 22 3
33 23 3
33 24 1
33 27 1
33 28 4
33 30 1
34 1 1
34 2 1
34 5 4
34 7 4
34 8 2
34 9 2
34 10 5
34 14 4
34 15 2
34 16 1
34 17 1
34 18 4
34 19 1
34 21 1
34 22 1
34 23 2
34 28 4
34 31 1
35 0 5
35 3 5
35 4 3
35 5 2
35 8 4
35 11 3
35 12 4
35 15 3
35 16 1
35 17 3
35 18 4
35 20 5
35 23 4
35 24 3
35 26 2
35 29 5
35 33 4
35 34 1
36 0 3
36 2 5
36 3 2
36 4 1
36 6 1
36 7 5
36 8 4
36 11 4
36 12 5
36 13 3
36 18 3
36 22 1
36 23 4
36 24 1
36 25 1
36 30 2
36 31 5
36 34 4
37 1 3
37 2 3
37 3 3
37 4 3
37 5 2
37 7 1
37 9 1
37 10 4
37 11 1
37 15 4
37 16 5
37 17 5
37 19 4
37 20 5
37 21 1
37 22 5
37 23 5
37 26 3
37 27 5
37 28 3
37 30 2
37 31 4
37 32 1
37 34 4
37 36 2
38 0 4
38 1 1
38 5 5
38 6 3
38 8 2
38 9 1
38 10 5
38 13 5
38 17 2
38 19 1
38 23 1
38 24 3
38 25 2
38 26 1
38 28 4
38 29 4
38 30 3
38 32 5
38 35 5
38 37 1
39 1 1
39 4 5
39 6 5
39 7 1
39 10 5
39 12 3
39 13 2
39 15 3
39 17 2
39 18 3
39 20 2
39 22 3
39 26 4
39 27 1
39 28 4
39 32 2
39 34 4
39 35 4
39 36 4
40 1 2
40 2 2
40 3 3
40 4 2
40 5 4
40 6 1
40 9 4
40 11 5
40 13 2
40 14 4
40 17 1
40 18 3
40 19 1
40 20 3
40 23 3
40 31 3
40 33 4
40 35 2
41 0 4
41 7 4
41 8 2
41 9 5
41 10 5
41 13 5
41 14 4
41 19 5
41 20 3
41 24 1
41 26 3
41 28 2
41 29 3
41 32 1
41 33 4
41 36 5
42 0 1
42 2 3
42 3 4
42 8 2
42 9 1
42 12 2
42 14 1
42 15 1
42 17 5
42 18 4
42 19 3
42 20 2
42 23 2
42 24 2
42 26 2
42 27 4
42 30 4
42 34 1
42 35 1
42 37 3
42 38 1
42 39 2
42 40 3
42 41 2
43 2 4
43 5 3
43 7 2
43 8 4
43 10 4
43 11 2
43 12 4
43 15 2
43 19 1
43 20 2
43 23 1
43 27 2
43 28 1
43 31 2
43 32 1
43 34 2
43 35 1
43 36 5
43 39 4
43 40 5
44 0 2
44 1 5
44 2 4
44 5 1
44 7 1
44 9 1
44 10 4
44 12 1
44 16 2
44 18 1
44 20 3
44 21 4
44 22 1
44 24 2
44 26 1
44 28 4
44 30 3
44 31 5
44 38 5
44 39 4
44 40 3
45 1 5
45 5 4
45 7 2
45 8 2
45 9 2
45 10 5
45 14 1
45 17 2
45 18 4
45 22 2
45 24 1
45 25 1
45 26 2
45 28 4
45 29 5
45 30 4
45 33 1
45 34 1
45 35 5
45 39 4
45 41 1
45 42 5
45 43 1
45 44 5
46 0 1
46 1 1
46 5 4
46 6 2
46 7 1
46 8 3
46 9 2
46 10 4
46 11 4
46 12 2
46 13 5
46 15 5
46 17 4
46 18 2
46 19 5
46 20 2
46 21 3
46 22 2
46 23 4
46 24 1
46 25 5
46 26 1
46 27 2
46 28 3
46 29 4
46 34 4
46 37 5
46 43 3
46 45 2
47 0 2
47 1 1
47 2 3
47 3 4
47 6 2
47 7 2
47 8 1
47 10 1
47 12 2
47 13 1
47 15 5
47 16 2
47 17 4
47 19 4
47 20 5
47 22 5
47 24 2
47 25 3
47 27 4
47 28 5
47 30 3
47 31 2
47 32 3
47 33 4
47 34 3
47 35 2
47 38 2
47 39 5
47 42 4
47 43 3
47 44 4
47 45 4
47 46 5
48 0 2
48 4 1
48 6 4
48 7 1
48 8 2
48 9 4
48 11 1
48 12 4
48 13 2
48 14 5
48 15 3
48 16 2
48 20 1
48 21 1
48 23 2
48 28 2
48 29 1
48 30 1
48 32 1
48 35 1
48 36 1
48 47 5
49 4 3
49 6 5
49 7 5
49 10 5
49 11 3
49 12 1
49 14 3
49 20 4
49 21 1
49 23 1
49 26 2
49 28 3
49 30 2
49 31 3
49 32 2
49 33 1
49 35 3
49 37 1
49 40 4
49 41 1
49 42 3
49 44 3
50 3 4
50 4 3
50 7 1
50 8 4
50 9 1
50 10 5
50 11 2
50 12 5
50 14 4
50 16 1
50 17 4
50 18 3
50 20 1
50 21 1
50 22 3
50 26 4
50 27 4
50 31 2
50 34 5
50 36 5
50 38 1
50 41 3
50 42 3
50 43 4
50 44 1
50 46 2
51 0 2
51 2 2
51 3 1
51 8 1
51 10 3
51 11 3
51 15 3
51 18 2
51 20 5
51 24 1
51 25 4
51 26 3
51 27 5
51 28 4
51 30 3
51 32 5
51 33 3
51 34 5
51 36 3
51 37 2
51 38 3
51 39 1
51 41 5
51 45 2
51 46 3
51 47 2
51 50 4
52 1 2
52 4 2
52 5 2
52 6 2
52 7 2
52 10 2
52 12 5
52 14 2
52 16 2
52 19 1
52 20 3
52 21 4
52 22 3
52 23 4
52 30 5
52 31 5
52 32 4
52 33 5
52 34 4
52 35 1
52 40 1
52 41 1
52 44 1
52 45 1
52 47 4
53 0 4
53 2 3
53 4 5
53 5 1
53 6 5
53 7 1
53 9 1
53 11 4
53 14 5
53 16 2
53 20 2
53 22 1
53 23 2
53 24 2
53 26 5
53 27 1
53 28 1
53 29 1
53 30 3
53 31 2
53 34 1
53 35 2
53 36 4
53 39 3
53 40 2
53 41 2
53 42 2
53 43 3
53 44 2
53 46 3
53 47 3
53 48 4
53 49 4
53 51 2
54 0 3
54 2 3
54 4 3
54 5 4
54 6 1
54 8 5
54 9 3
54 11 2
54 12 1
54 14 1
54 15 1
54 16 2
54 17 3
54 18 5
54 20 2
54 21 3
54 24 4
54 26 4
54 27 1
54 28 3
54 30 2
54 32 5
54 34 2
54 35 1
54 36 2
54 37 3
54 39 4
54 41 1
54 43 4
54 44 2
54 46 5
54 47 4
54 48 5
54 49 3
54 50 3
54 51 5
54 53 2
